clingo version 5.5.2
Reading from ...nt/beegfs/home/jubruns/encoding/mif.lp ...
Solving...
Answer: 1
move(1,(7,5),(7,6),1) move(1,(7,6),(6,6),2) move(1,(6,6),(5,6),3) move(1,(5,6),(5,7),4) move(1,(5,7),(5,8),5) move(1,(5,8),(5,9),6) move(1,(5,9),(5,10),7) move(1,(5,10),(6,10),8) move(1,(6,10),(7,10),9) move(1,(7,10),(7,9),10) move(2,(3,9),(3,10),1)
SATISFIABLE

Models       : 1+
Calls        : 1
Time         : 0.070s (Solving: 0.00s 1st Model: 0.00s Unsat: 0.00s)
CPU Time     : 0.046s

Choices      : 10       (Domain: 10)
Conflicts    : 0        (Analyzed: 0)
Restarts     : 0       
Model-Level  : 10.0    
Problems     : 1        (Average Length: 0.00 Splits: 0)
Lemmas       : 0        (Deleted: 0)
  Binary     : 0        (Ratio:   0.00%)
  Ternary    : 0        (Ratio:   0.00%)
  Conflict   : 0        (Average Length:    0.0 Ratio:   0.00%) 
  Loop       : 0        (Average Length:    0.0 Ratio:   0.00%) 
  Other      : 0        (Average Length:    0.0 Ratio:   0.00%) 
Backjumps    : 0        (Average:  0.00 Max:   0 Sum:      0)
  Executed   : 0        (Average:  0.00 Max:   0 Sum:      0 Ratio:   0.00%)
  Bounded    : 0        (Average:  0.00 Max:   0 Sum:      0 Ratio: 100.00%)

Rules        : 30602    (Original: 13614)
  Choice     : 20      
  Heuristic  : 274      (Original: 653)
Atoms        : 16357    (Original: 8017 Auxiliary: 8340)
Bodies       : 15103    (Original: 7906)
  Count      : 0        (Original: 60)
Equivalences : 5421     (Atom=Atom: 43 Body=Body: 54 Other: 5324)
Tight        : Yes
Variables    : 15582    (Eliminated:    0 Frozen:    0)
Constraints  : 28339    (Binary:  86.0% Ternary:  13.6% Other:   0.4%)

